c File: flat100_3_0.col 0
c 0 0 0
c SOURCE: Joseph Culberson (joe@cs.ualberta.ca)
c DESCRIPTION: Quasi-random coloring problem
c              generated with flatness = 0
c                             probability = 0.072
c                             known coloring = 3
c                             random seed = 1001
c              Creation Date:  Thu Jun  4 18:54:36 1998
c Maximum degree = 8 Minimum degree = 1
c p edge 100 239
c cnf created by edge2cnf
p cnf 300 1117
-1 -2 0 0
-1 -3 0 0
-2 -3 0 0
1 2 3 0
-4 -5 0 0
-4 -6 0 0
-5 -6 0 0
4 5 6 0
-7 -8 0 0
-7 -9 0 0
-8 -9 0 0
7 8 9 0
-10 -11 0 0
-10 -12 0 0
-11 -12 0 0
10 11 12 0
-13 -14 0 0
-13 -15 0 0
-14 -15 0 0
13 14 15 0
-16 -17 0 0
-16 -18 0 0
-17 -18 0 0
16 17 18 0
-19 -20 0 0
-19 -21 0 0
-20 -21 0 0
19 20 21 0
-22 -23 0 0
-22 -24 0 0
-23 -24 0 0
22 23 24 0
-25 -26 0 0
-25 -27 0 0
-26 -27 0 0
25 26 27 0
-28 -29 0 0
-28 -30 0 0
-29 -30 0 0
28 29 30 0
-31 -32 0 0
-31 -33 0 0
-32 -33 0 0
31 32 33 0
-34 -35 0 0
-34 -36 0 0
-35 -36 0 0
34 35 36 0
-37 -38 0 0
-37 -39 0 0
-38 -39 0 0
37 38 39 0
-40 -41 0 0
-40 -42 0 0
-41 -42 0 0
40 41 42 0
-43 -44 0 0
-43 -45 0 0
-44 -45 0 0
43 44 45 0
-46 -47 0 0
-46 -48 0 0
-47 -48 0 0
46 47 48 0
-49 -50 0 0
-49 -51 0 0
-50 -51 0 0
49 50 51 0
-52 -53 0 0
-52 -54 0 0
-53 -54 0 0
52 53 54 0
-55 -56 0 0
-55 -57 0 0
-56 -57 0 0
55 56 57 0
-58 -59 0 0
-58 -60 0 0
-59 -60 0 0
58 59 60 0
-61 -62 0 0
-61 -63 0 0
-62 -63 0 0
61 62 63 0
-64 -65 0 0
-64 -66 0 0
-65 -66 0 0
64 65 66 0
-67 -68 0 0
-67 -69 0 0
-68 -69 0 0
67 68 69 0
-70 -71 0 0
-70 -72 0 0
-71 -72 0 0
70 71 72 0
-73 -74 0 0
-73 -75 0 0
-74 -75 0 0
73 74 75 0
-76 -77 0 0
-76 -78 0 0
-77 -78 0 0
76 77 78 0
-79 -80 0 0
-79 -81 0 0
-80 -81 0 0
79 80 81 0
-82 -83 0 0
-82 -84 0 0
-83 -84 0 0
82 83 84 0
-85 -86 0 0
-85 -87 0 0
-86 -87 0 0
85 86 87 0
-88 -89 0 0
-88 -90 0 0
-89 -90 0 0
88 89 90 0
-91 -92 0 0
-91 -93 0 0
-92 -93 0 0
91 92 93 0
-94 -95 0 0
-94 -96 0 0
-95 -96 0 0
94 95 96 0
-97 -98 0 0
-97 -99 0 0
-98 -99 0 0
97 98 99 0
-100 -101 0 0
-100 -102 0 0
-101 -102 0 0
100 101 102 0
-103 -104 0 0
-103 -105 0 0
-104 -105 0 0
103 104 105 0
-106 -107 0 0
-106 -108 0 0
-107 -108 0 0
106 107 108 0
-109 -110 0 0
-109 -111 0 0
-110 -111 0 0
109 110 111 0
-112 -113 0 0
-112 -114 0 0
-113 -114 0 0
112 113 114 0
-115 -116 0 0
-115 -117 0 0
-116 -117 0 0
115 116 117 0
-118 -119 0 0
-118 -120 0 0
-119 -120 0 0
118 119 120 0
-121 -122 0 0
-121 -123 0 0
-122 -123 0 0
121 122 123 0
-124 -125 0 0
-124 -126 0 0
-125 -126 0 0
124 125 126 0
-127 -128 0 0
-127 -129 0 0
-128 -129 0 0
127 128 129 0
-130 -131 0 0
-130 -132 0 0
-131 -132 0 0
130 131 132 0
-133 -134 0 0
-133 -135 0 0
-134 -135 0 0
133 134 135 0
-136 -137 0 0
-136 -138 0 0
-137 -138 0 0
136 137 138 0
-139 -140 0 0
-139 -141 0 0
-140 -141 0 0
139 140 141 0
-142 -143 0 0
-142 -144 0 0
-143 -144 0 0
142 143 144 0
-145 -146 0 0
-145 -147 0 0
-146 -147 0 0
145 146 147 0
-148 -149 0 0
-148 -150 0 0
-149 -150 0 0
148 149 150 0
-151 -152 0 0
-151 -153 0 0
-152 -153 0 0
151 152 153 0
-154 -155 0 0
-154 -156 0 0
-155 -156 0 0
154 155 156 0
-157 -158 0 0
-157 -159 0 0
-158 -159 0 0
157 158 159 0
-160 -161 0 0
-160 -162 0 0
-161 -162 0 0
160 161 162 0
-163 -164 0 0
-163 -165 0 0
-164 -165 0 0
163 164 165 0
-166 -167 0 0
-166 -168 0 0
-167 -168 0 0
166 167 168 0
-169 -170 0 0
-169 -171 0 0
-170 -171 0 0
169 170 171 0
-172 -173 0 0
-172 -174 0 0
-173 -174 0 0
172 173 174 0
-175 -176 0 0
-175 -177 0 0
-176 -177 0 0
175 176 177 0
-178 -179 0 0
-178 -180 0 0
-179 -180 0 0
178 179 180 0
-181 -182 0 0
-181 -183 0 0
-182 -183 0 0
181 182 183 0
-184 -185 0 0
-184 -186 0 0
-185 -186 0 0
184 185 186 0
-187 -188 0 0
-187 -189 0 0
-188 -189 0 0
187 188 189 0
-190 -191 0 0
-190 -192 0 0
-191 -192 0 0
190 191 192 0
-193 -194 0 0
-193 -195 0 0
-194 -195 0 0
193 194 195 0
-196 -197 0 0
-196 -198 0 0
-197 -198 0 0
196 197 198 0
-199 -200 0 0
-199 -201 0 0
-200 -201 0 0
199 200 201 0
-202 -203 0 0
-202 -204 0 0
-203 -204 0 0
202 203 204 0
-205 -206 0 0
-205 -207 0 0
-206 -207 0 0
205 206 207 0
-208 -209 0 0
-208 -210 0 0
-209 -210 0 0
208 209 210 0
-211 -212 0 0
-211 -213 0 0
-212 -213 0 0
211 212 213 0
-214 -215 0 0
-214 -216 0 0
-215 -216 0 0
214 215 216 0
-217 -218 0 0
-217 -219 0 0
-218 -219 0 0
217 218 219 0
-220 -221 0 0
-220 -222 0 0
-221 -222 0 0
220 221 222 0
-223 -224 0 0
-223 -225 0 0
-224 -225 0 0
223 224 225 0
-226 -227 0 0
-226 -228 0 0
-227 -228 0 0
226 227 228 0
-229 -230 0 0
-229 -231 0 0
-230 -231 0 0
229 230 231 0
-232 -233 0 0
-232 -234 0 0
-233 -234 0 0
232 233 234 0
-235 -236 0 0
-235 -237 0 0
-236 -237 0 0
235 236 237 0
-238 -239 0 0
-238 -240 0 0
-239 -240 0 0
238 239 240 0
-241 -242 0 0
-241 -243 0 0
-242 -243 0 0
241 242 243 0
-244 -245 0 0
-244 -246 0 0
-245 -246 0 0
244 245 246 0
-247 -248 0 0
-247 -249 0 0
-248 -249 0 0
247 248 249 0
-250 -251 0 0
-250 -252 0 0
-251 -252 0 0
250 251 252 0
-253 -254 0 0
-253 -255 0 0
-254 -255 0 0
253 254 255 0
-256 -257 0 0
-256 -258 0 0
-257 -258 0 0
256 257 258 0
-259 -260 0 0
-259 -261 0 0
-260 -261 0 0
259 260 261 0
-262 -263 0 0
-262 -264 0 0
-263 -264 0 0
262 263 264 0
-265 -266 0 0
-265 -267 0 0
-266 -267 0 0
265 266 267 0
-268 -269 0 0
-268 -270 0 0
-269 -270 0 0
268 269 270 0
-271 -272 0 0
-271 -273 0 0
-272 -273 0 0
271 272 273 0
-274 -275 0 0
-274 -276 0 0
-275 -276 0 0
274 275 276 0
-277 -278 0 0
-277 -279 0 0
-278 -279 0 0
277 278 279 0
-280 -281 0 0
-280 -282 0 0
-281 -282 0 0
280 281 282 0
-283 -284 0 0
-283 -285 0 0
-284 -285 0 0
283 284 285 0
-286 -287 0 0
-286 -288 0 0
-287 -288 0 0
286 287 288 0
-289 -290 0 0
-289 -291 0 0
-290 -291 0 0
289 290 291 0
-292 -293 0 0
-292 -294 0 0
-293 -294 0 0
292 293 294 0
-295 -296 0 0
-295 -297 0 0
-296 -297 0 0
295 296 297 0
-298 -299 0 0
-298 -300 0 0
-299 -300 0 0
298 299 300 0
-118 -1 0 0
-119 -2 0 0
-120 -3 0 0
-166 -1 0 0
-167 -2 0 0
-168 -3 0 0
-184 -1 0 0
-185 -2 0 0
-186 -3 0 0
-214 -1 0 0
-215 -2 0 0
-216 -3 0 0
-223 -1 0 0
-224 -2 0 0
-225 -3 0 0
-259 -1 0 0
-260 -2 0 0
-261 -3 0 0
-280 -1 0 0
-281 -2 0 0
-282 -3 0 0
-103 -4 0 0
-104 -5 0 0
-105 -6 0 0
-121 -4 0 0
-122 -5 0 0
-123 -6 0 0
-124 -4 0 0
-125 -5 0 0
-126 -6 0 0
-214 -4 0 0
-215 -5 0 0
-216 -6 0 0
-280 -4 0 0
-281 -5 0 0
-282 -6 0 0
-145 -7 0 0
-146 -8 0 0
-147 -9 0 0
-178 -7 0 0
-179 -8 0 0
-180 -9 0 0
-205 -7 0 0
-206 -8 0 0
-207 -9 0 0
-208 -7 0 0
-209 -8 0 0
-210 -9 0 0
-217 -7 0 0
-218 -8 0 0
-219 -9 0 0
-253 -7 0 0
-254 -8 0 0
-255 -9 0 0
-178 -10 0 0
-179 -11 0 0
-180 -12 0 0
-193 -10 0 0
-194 -11 0 0
-195 -12 0 0
-109 -13 0 0
-110 -14 0 0
-111 -15 0 0
-145 -13 0 0
-146 -14 0 0
-147 -15 0 0
-220 -13 0 0
-221 -14 0 0
-222 -15 0 0
-238 -13 0 0
-239 -14 0 0
-240 -15 0 0
-298 -13 0 0
-299 -14 0 0
-300 -15 0 0
-118 -16 0 0
-119 -17 0 0
-120 -18 0 0
-121 -16 0 0
-122 -17 0 0
-123 -18 0 0
-154 -16 0 0
-155 -17 0 0
-156 -18 0 0
-178 -16 0 0
-179 -17 0 0
-180 -18 0 0
-226 -16 0 0
-227 -17 0 0
-228 -18 0 0
-247 -16 0 0
-248 -17 0 0
-249 -18 0 0
-253 -16 0 0
-254 -17 0 0
-255 -18 0 0
-262 -16 0 0
-263 -17 0 0
-264 -18 0 0
-139 -19 0 0
-140 -20 0 0
-141 -21 0 0
-193 -19 0 0
-194 -20 0 0
-195 -21 0 0
-202 -19 0 0
-203 -20 0 0
-204 -21 0 0
-205 -19 0 0
-206 -20 0 0
-207 -21 0 0
-220 -19 0 0
-221 -20 0 0
-222 -21 0 0
-286 -19 0 0
-287 -20 0 0
-288 -21 0 0
-106 -22 0 0
-107 -23 0 0
-108 -24 0 0
-109 -22 0 0
-110 -23 0 0
-111 -24 0 0
-112 -22 0 0
-113 -23 0 0
-114 -24 0 0
-130 -22 0 0
-131 -23 0 0
-132 -24 0 0
-226 -22 0 0
-227 -23 0 0
-228 -24 0 0
-238 -22 0 0
-239 -23 0 0
-240 -24 0 0
-274 -22 0 0
-275 -23 0 0
-276 -24 0 0
-148 -25 0 0
-149 -26 0 0
-150 -27 0 0
-175 -25 0 0
-176 -26 0 0
-177 -27 0 0
-106 -28 0 0
-107 -29 0 0
-108 -30 0 0
-229 -28 0 0
-230 -29 0 0
-231 -30 0 0
-247 -28 0 0
-248 -29 0 0
-249 -30 0 0
-286 -28 0 0
-287 -29 0 0
-288 -30 0 0
-139 -31 0 0
-140 -32 0 0
-141 -33 0 0
-223 -31 0 0
-224 -32 0 0
-225 -33 0 0
-274 -31 0 0
-275 -32 0 0
-276 -33 0 0
-142 -34 0 0
-143 -35 0 0
-144 -36 0 0
-160 -34 0 0
-161 -35 0 0
-162 -36 0 0
-181 -34 0 0
-182 -35 0 0
-183 -36 0 0
-193 -34 0 0
-194 -35 0 0
-195 -36 0 0
-238 -34 0 0
-239 -35 0 0
-240 -36 0 0
-154 -37 0 0
-155 -38 0 0
-156 -39 0 0
-178 -37 0 0
-179 -38 0 0
-180 -39 0 0
-253 -37 0 0
-254 -38 0 0
-255 -39 0 0
-115 -40 0 0
-116 -41 0 0
-117 -42 0 0
-163 -40 0 0
-164 -41 0 0
-165 -42 0 0
-166 -40 0 0
-167 -41 0 0
-168 -42 0 0
-283 -40 0 0
-284 -41 0 0
-285 -42 0 0
-136 -43 0 0
-137 -44 0 0
-138 -45 0 0
-142 -43 0 0
-143 -44 0 0
-144 -45 0 0
-187 -43 0 0
-188 -44 0 0
-189 -45 0 0
-190 -43 0 0
-191 -44 0 0
-192 -45 0 0
-250 -43 0 0
-251 -44 0 0
-252 -45 0 0
-286 -43 0 0
-287 -44 0 0
-288 -45 0 0
-289 -43 0 0
-290 -44 0 0
-291 -45 0 0
-298 -43 0 0
-299 -44 0 0
-300 -45 0 0
-133 -46 0 0
-134 -47 0 0
-135 -48 0 0
-166 -46 0 0
-167 -47 0 0
-168 -48 0 0
-205 -46 0 0
-206 -47 0 0
-207 -48 0 0
-232 -46 0 0
-233 -47 0 0
-234 -48 0 0
-235 -46 0 0
-236 -47 0 0
-237 -48 0 0
-241 -46 0 0
-242 -47 0 0
-243 -48 0 0
-169 -49 0 0
-170 -50 0 0
-171 -51 0 0
-187 -49 0 0
-188 -50 0 0
-189 -51 0 0
-205 -49 0 0
-206 -50 0 0
-207 -51 0 0
-259 -49 0 0
-260 -50 0 0
-261 -51 0 0
-277 -49 0 0
-278 -50 0 0
-279 -51 0 0
-142 -52 0 0
-143 -53 0 0
-144 -54 0 0
-166 -52 0 0
-167 -53 0 0
-168 -54 0 0
-187 -52 0 0
-188 -53 0 0
-189 -54 0 0
-259 -52 0 0
-260 -53 0 0
-261 -54 0 0
-136 -55 0 0
-137 -56 0 0
-138 -57 0 0
-157 -55 0 0
-158 -56 0 0
-159 -57 0 0
-163 -55 0 0
-164 -56 0 0
-165 -57 0 0
-169 -55 0 0
-170 -56 0 0
-171 -57 0 0
-241 -55 0 0
-242 -56 0 0
-243 -57 0 0
-283 -55 0 0
-284 -56 0 0
-285 -57 0 0
-121 -58 0 0
-122 -59 0 0
-123 -60 0 0
-232 -58 0 0
-233 -59 0 0
-234 -60 0 0
-145 -61 0 0
-146 -62 0 0
-147 -63 0 0
-175 -61 0 0
-176 -62 0 0
-177 -63 0 0
-181 -61 0 0
-182 -62 0 0
-183 -63 0 0
-199 -61 0 0
-200 -62 0 0
-201 -63 0 0
-202 -61 0 0
-203 -62 0 0
-204 -63 0 0
-226 -61 0 0
-227 -62 0 0
-228 -63 0 0
-238 -61 0 0
-239 -62 0 0
-240 -63 0 0
-103 -64 0 0
-104 -65 0 0
-105 -66 0 0
-169 -64 0 0
-170 -65 0 0
-171 -66 0 0
-181 -64 0 0
-182 -65 0 0
-183 -66 0 0
-196 -64 0 0
-197 -65 0 0
-198 -66 0 0
-289 -64 0 0
-290 -65 0 0
-291 -66 0 0
-154 -67 0 0
-155 -68 0 0
-156 -69 0 0
-292 -67 0 0
-293 -68 0 0
-294 -69 0 0
-136 -70 0 0
-137 -71 0 0
-138 -72 0 0
-139 -70 0 0
-140 -71 0 0
-141 -72 0 0
-280 -70 0 0
-281 -71 0 0
-282 -72 0 0
-172 -73 0 0
-173 -74 0 0
-174 -75 0 0
-253 -73 0 0
-254 -74 0 0
-255 -75 0 0
-256 -73 0 0
-257 -74 0 0
-258 -75 0 0
-265 -73 0 0
-266 -74 0 0
-267 -75 0 0
-154 -76 0 0
-155 -77 0 0
-156 -78 0 0
-175 -76 0 0
-176 -77 0 0
-177 -78 0 0
-193 -76 0 0
-194 -77 0 0
-195 -78 0 0
-220 -76 0 0
-221 -77 0 0
-222 -78 0 0
-256 -76 0 0
-257 -77 0 0
-258 -78 0 0
-202 -79 0 0
-203 -80 0 0
-204 -81 0 0
-265 -79 0 0
-266 -80 0 0
-267 -81 0 0
-274 -79 0 0
-275 -80 0 0
-276 -81 0 0
-112 -82 0 0
-113 -83 0 0
-114 -84 0 0
-121 -82 0 0
-122 -83 0 0
-123 -84 0 0
-214 -82 0 0
-215 -83 0 0
-216 -84 0 0
-265 -82 0 0
-266 -83 0 0
-267 -84 0 0
-277 -82 0 0
-278 -83 0 0
-279 -84 0 0
-286 -82 0 0
-287 -83 0 0
-288 -84 0 0
-136 -85 0 0
-137 -86 0 0
-138 -87 0 0
-196 -85 0 0
-197 -86 0 0
-198 -87 0 0
-124 -88 0 0
-125 -89 0 0
-126 -90 0 0
-214 -88 0 0
-215 -89 0 0
-216 -90 0 0
-217 -88 0 0
-218 -89 0 0
-219 -90 0 0
-241 -88 0 0
-242 -89 0 0
-243 -90 0 0
-244 -88 0 0
-245 -89 0 0
-246 -90 0 0
-127 -91 0 0
-128 -92 0 0
-129 -93 0 0
-133 -91 0 0
-134 -92 0 0
-135 -93 0 0
-139 -91 0 0
-140 -92 0 0
-141 -93 0 0
-190 -91 0 0
-191 -92 0 0
-192 -93 0 0
-208 -91 0 0
-209 -92 0 0
-210 -93 0 0
-271 -91 0 0
-272 -92 0 0
-273 -93 0 0
-289 -91 0 0
-290 -92 0 0
-291 -93 0 0
-184 -94 0 0
-185 -95 0 0
-186 -96 0 0
-241 -94 0 0
-242 -95 0 0
-243 -96 0 0
-124 -97 0 0
-125 -98 0 0
-126 -99 0 0
-202 -97 0 0
-203 -98 0 0
-204 -99 0 0
-280 -97 0 0
-281 -98 0 0
-282 -99 0 0
-292 -97 0 0
-293 -98 0 0
-294 -99 0 0
-127 -100 0 0
-128 -101 0 0
-129 -102 0 0
-145 -100 0 0
-146 -101 0 0
-147 -102 0 0
-163 -100 0 0
-164 -101 0 0
-165 -102 0 0
-187 -100 0 0
-188 -101 0 0
-189 -102 0 0
-211 -100 0 0
-212 -101 0 0
-213 -102 0 0
-232 -100 0 0
-233 -101 0 0
-234 -102 0 0
-277 -100 0 0
-278 -101 0 0
-279 -102 0 0
-283 -100 0 0
-284 -101 0 0
-285 -102 0 0
-283 -103 0 0
-284 -104 0 0
-285 -105 0 0
-241 -106 0 0
-242 -107 0 0
-243 -108 0 0
-265 -106 0 0
-266 -107 0 0
-267 -108 0 0
-217 -109 0 0
-218 -110 0 0
-219 -111 0 0
-238 -109 0 0
-239 -110 0 0
-240 -111 0 0
-259 -109 0 0
-260 -110 0 0
-261 -111 0 0
-280 -109 0 0
-281 -110 0 0
-282 -111 0 0
-202 -112 0 0
-203 -113 0 0
-204 -114 0 0
-211 -112 0 0
-212 -113 0 0
-213 -114 0 0
-244 -112 0 0
-245 -113 0 0
-246 -114 0 0
-289 -112 0 0
-290 -113 0 0
-291 -114 0 0
-220 -115 0 0
-221 -116 0 0
-222 -117 0 0
-265 -115 0 0
-266 -116 0 0
-267 -117 0 0
-277 -118 0 0
-278 -119 0 0
-279 -120 0 0
-286 -118 0 0
-287 -119 0 0
-288 -120 0 0
-274 -124 0 0
-275 -125 0 0
-276 -126 0 0
-247 -127 0 0
-248 -128 0 0
-249 -129 0 0
-280 -127 0 0
-281 -128 0 0
-282 -129 0 0
-223 -130 0 0
-224 -131 0 0
-225 -132 0 0
-268 -130 0 0
-269 -131 0 0
-270 -132 0 0
-202 -133 0 0
-203 -134 0 0
-204 -135 0 0
-256 -133 0 0
-257 -134 0 0
-258 -135 0 0
-277 -133 0 0
-278 -134 0 0
-279 -135 0 0
-211 -136 0 0
-212 -137 0 0
-213 -138 0 0
-220 -136 0 0
-221 -137 0 0
-222 -138 0 0
-277 -136 0 0
-278 -137 0 0
-279 -138 0 0
-283 -136 0 0
-284 -137 0 0
-285 -138 0 0
-292 -139 0 0
-293 -140 0 0
-294 -141 0 0
-295 -139 0 0
-296 -140 0 0
-297 -141 0 0
-208 -142 0 0
-209 -143 0 0
-210 -144 0 0
-223 -142 0 0
-224 -143 0 0
-225 -144 0 0
-205 -145 0 0
-206 -146 0 0
-207 -147 0 0
-214 -145 0 0
-215 -146 0 0
-216 -147 0 0
-271 -145 0 0
-272 -146 0 0
-273 -147 0 0
-235 -148 0 0
-236 -149 0 0
-237 -150 0 0
-247 -148 0 0
-248 -149 0 0
-249 -150 0 0
-268 -148 0 0
-269 -149 0 0
-270 -150 0 0
-277 -148 0 0
-278 -149 0 0
-279 -150 0 0
-253 -151 0 0
-254 -152 0 0
-255 -153 0 0
-271 -151 0 0
-272 -152 0 0
-273 -153 0 0
-280 -151 0 0
-281 -152 0 0
-282 -153 0 0
-220 -154 0 0
-221 -155 0 0
-222 -156 0 0
-259 -154 0 0
-260 -155 0 0
-261 -156 0 0
-289 -154 0 0
-290 -155 0 0
-291 -156 0 0
-226 -157 0 0
-227 -158 0 0
-228 -159 0 0
-232 -163 0 0
-233 -164 0 0
-234 -165 0 0
-238 -163 0 0
-239 -164 0 0
-240 -165 0 0
-259 -163 0 0
-260 -164 0 0
-261 -165 0 0
-205 -166 0 0
-206 -167 0 0
-207 -168 0 0
-295 -166 0 0
-296 -167 0 0
-297 -168 0 0
-226 -169 0 0
-227 -170 0 0
-228 -171 0 0
-250 -169 0 0
-251 -170 0 0
-252 -171 0 0
-265 -169 0 0
-266 -170 0 0
-267 -171 0 0
-283 -169 0 0
-284 -170 0 0
-285 -171 0 0
-229 -172 0 0
-230 -173 0 0
-231 -174 0 0
-244 -172 0 0
-245 -173 0 0
-246 -174 0 0
-289 -172 0 0
-290 -173 0 0
-291 -174 0 0
-208 -175 0 0
-209 -176 0 0
-210 -177 0 0
-253 -178 0 0
-254 -179 0 0
-255 -180 0 0
-289 -178 0 0
-290 -179 0 0
-291 -180 0 0
-232 -181 0 0
-233 -182 0 0
-234 -183 0 0
-253 -181 0 0
-254 -182 0 0
-255 -183 0 0
-217 -184 0 0
-218 -185 0 0
-219 -186 0 0
-220 -184 0 0
-221 -185 0 0
-222 -186 0 0
-283 -184 0 0
-284 -185 0 0
-285 -186 0 0
-295 -184 0 0
-296 -185 0 0
-297 -186 0 0
-265 -187 0 0
-266 -188 0 0
-267 -189 0 0
-238 -190 0 0
-239 -191 0 0
-240 -192 0 0
-250 -190 0 0
-251 -191 0 0
-252 -192 0 0
-295 -190 0 0
-296 -191 0 0
-297 -192 0 0
-217 -193 0 0
-218 -194 0 0
-219 -195 0 0
-226 -193 0 0
-227 -194 0 0
-228 -195 0 0
-232 -193 0 0
-233 -194 0 0
-234 -195 0 0
-211 -196 0 0
-212 -197 0 0
-213 -198 0 0
-214 -196 0 0
-215 -197 0 0
-216 -198 0 0
-223 -196 0 0
-224 -197 0 0
-225 -198 0 0
-253 -196 0 0
-254 -197 0 0
-255 -198 0 0
-262 -199 0 0
-263 -200 0 0
-264 -201 0 0